m=4;
gx=[1, 1, 2, 2];
gy=[1, 2, 1, 2];
N=4;
tx=[0, 1, 1, 1];
ty=[1, 0, 1, -1];
tk=[1, 1, 1, 1];
r90=[3, 1, 4, 2];
r180=[4, 3, 2, 1];
r270=[2, 4, 1, 3];
reflect=[2, 1, 4, 3];
r180_reflect=[3, 4, 1, 2];
r270_reflect=[4, 2, 3, 1];
d_lb=4;
d_ub=5;